
Gurobi 11.0.3 (linux64) logging started Mon Aug 25 15:05:56 2025

Set parameter LogFile to value "/home/yihong/Coding/OR_SUC/SUC_epstheta_results_bigM100000_thread4/case24_ieee_rts_theta0.1_epsilon0.1_gurobi_seed210000_num_gen100_N_WDR50_load_scaling_factor1_proposed_theta_T10quadra_cost_bc1.05.txt"
Set parameter TimeLimit to value 3600
Gurobi Optimizer version 11.0.3 build v11.0.3rc0 (linux64 - "Ubuntu 20.04.6 LTS")

CPU model: AMD EPYC 7532 32-Core Processor, instruction set [SSE2|AVX|AVX2]
Thread count: 64 physical cores, 128 logical processors, using up to 4 threads

Academic license 2399124 - for non-commercial use only - registered to yi___@ed.ac.uk
Optimize a model with 23642 rows, 12451 columns and 547142 nonzeros
Model fingerprint: 0x24d1612b
Model has 1000 quadratic constraints
Variable types: 11451 continuous, 1000 integer (1000 binary)
Coefficient statistics:
  Matrix range     [3e-04, 2e+03]
  QMatrix range    [2e-03, 8e-03]
  QLMatrix range   [5e-02, 6e+01]
  Objective range  [1e+00, 1e+00]
  Bounds range     [1e+00, 1e+00]
  RHS range        [1e+00, 9e+03]
Presolve removed 19476 rows and 5417 columns
Presolve time: 0.18s
Presolved: 4166 rows, 7034 columns, 23687 nonzeros
Presolved model has 1000 quadratic constraint(s)
Variable types: 6034 continuous, 1000 integer (1000 binary)

Root relaxation: objective 1.277726e+04, 3246 iterations, 0.07 seconds (0.08 work units)

    Nodes    |    Current Node    |     Objective Bounds      |     Work
 Expl Unexpl |  Obj  Depth IntInf | Incumbent    BestBd   Gap | It/Node Time

H    0     0                    271346.05865 12777.2626  95.3%     -    0s
*    0     0               0    271346.05865 12777.2626  95.3%     -    0s
     0     0 123339.493    0  414 271346.059 123339.493  54.5%     -    0s
     0     0 247546.533    0   71 271346.059 247546.533  8.77%     -    0s
     0     0 247591.423    0    9 271346.059 247591.423  8.75%     -    0s
     0     0 247591.716    0    8 271346.059 247591.716  8.75%     -    0s
     0     0 247592.575    0    8 271346.059 247592.575  8.75%     -    0s
     0     0 247592.575    0    9 271346.059 247592.575  8.75%     -    1s
     0     0 247594.605    0    9 271346.059 247594.605  8.75%     -    1s
     0     2 247594.605    0    9 271346.059 247594.605  8.75%     -    1s
H   79   104                    247661.36462 247602.202  0.02%  27.8    1s
*   79   104              22    247661.36462 247602.202  0.02%  27.8    1s

Cutting planes:
  Gomory: 62
  Lift-and-project: 1
  Implied bound: 122
  MIR: 18
  Flow cover: 246
  RLT: 145
  Relax-and-lift: 90

Explored 129 nodes (11421 simplex iterations) in 2.04 seconds (1.85 work units)
Thread count was 4 (of 128 available processors)

Solution count 3: 247661 247661 271346 

Optimal solution found (tolerance 1.00e-03)
Warning: max constraint violation (1.5420e-08) exceeds tolerance
Best objective 2.476613646187e+05, best bound 2.476022015990e+05, gap 0.0239%

Gurobi 11.0.3 (linux64) logging started Mon Aug 25 15:05:58 2025

Set parameter LogFile to value "/home/yihong/Coding/OR_SUC/SUC_epstheta_results_bigM100000_thread4/case24_ieee_rts_theta0.1_epsilon0.1_gurobi_seed210000_num_gen100_N_WDR50_load_scaling_factor1_proposed_theta_T10quadra_cost_bc1.05.txt"
Set parameter TimeLimit to value 3600
Gurobi Optimizer version 11.0.3 build v11.0.3rc0 (linux64 - "Ubuntu 20.04.6 LTS")

CPU model: AMD EPYC 7532 32-Core Processor, instruction set [SSE2|AVX|AVX2]
Thread count: 64 physical cores, 128 logical processors, using up to 4 threads

Academic license 2399124 - for non-commercial use only - registered to yi___@ed.ac.uk
Optimize a model with 23643 rows, 12452 columns and 550243 nonzeros
Model fingerprint: 0xc54be37a
Model has 1000 quadratic constraints
Variable types: 11452 continuous, 1000 integer (1000 binary)
Coefficient statistics:
  Matrix range     [3e-04, 2e+03]
  QMatrix range    [2e-03, 8e-03]
  QLMatrix range   [5e-02, 6e+01]
  Objective range  [1e+00, 1e+00]
  Bounds range     [1e-01, 1e+00]
  RHS range        [1e+00, 3e+05]
Presolve removed 17684 rows and 4520 columns
Presolve time: 0.18s
Presolved: 5959 rows, 7932 columns, 32373 nonzeros
Presolved model has 1000 quadratic constraint(s)
Variable types: 6930 continuous, 1002 integer (1002 binary)

Root relaxation: objective 1.055359e+01, 5662 iterations, 0.11 seconds (0.11 work units)

    Nodes    |    Current Node    |     Objective Bounds      |     Work
 Expl Unexpl |  Obj  Depth IntInf | Incumbent    BestBd   Gap | It/Node Time

     0     0   10.55359    0    -          -   10.55359      -     -    0s
     0     0    3.96798    0   19          -    3.96798      -     -    1s
     0     0    1.32933    0   11          -    1.32933      -     -    1s
     0     0    1.32928    0   11          -    1.32928      -     -    1s
     0     0    1.32687    0    9          -    1.32687      -     -    1s
     0     0    1.32687    0    9          -    1.32687      -     -    1s
     0     0    1.32685    0    9          -    1.32685      -     -    1s
     0     0    1.32684    0    9          -    1.32684      -     -    1s
     0     0    1.32681    0    9          -    1.32681      -     -    1s
H    0     0                       1.2343221    1.32681  7.49%     -    2s
H    0     0                       1.2806000    1.32681  3.61%     -    2s
     0     2    1.32681    0    9    1.28060    1.32681  3.61%     -    2s
H   28    32                       1.3129829    1.32622  1.01%  20.7    3s
H  232   198                       1.3212316    1.32622  0.38%  12.4    4s
*  232   198              61       1.3212316    1.32622  0.38%  12.5    4s
H  310   247                       1.3213318    1.32609  0.36%  12.6    4s
*  310   247              59       1.3213318    1.32609  0.36%  12.6    4s
   337   240    1.32393   25    8    1.32133    1.32609  0.36%  12.7    5s
   475   302    1.32441   13   38    1.32133    1.32594  0.35%  11.6   10s
   514   332    1.32564   13    9    1.32133    1.32564  0.33%  42.8   15s
H  825   480                       1.3215447    1.32533  0.29%  42.3   19s
*  825   480             110       1.3215447    1.32533  0.29%  42.3   19s
H  852   449                       1.3216723    1.32533  0.28%  41.5   19s
*  852   449             110       1.3216723    1.32533  0.28%  41.5   19s
H  870   428                       1.3232991    1.32533  0.15%  41.0   19s
*  870   428             102       1.3232991    1.32533  0.15%  41.0   19s
H  901   398                       1.3237381    1.32533  0.12%  39.9   20s
*  901   398              99       1.3237381    1.32533  0.12%  39.9   20s
H  980   366                       1.3243298    1.32533  0.08%  37.3   20s
*  980   366              91       1.3243298    1.32533  0.08%  37.3   20s

Cutting planes:
  Gomory: 6
  Implied bound: 8
  MIR: 10
  Flow cover: 13
  RLT: 1

Explored 991 nodes (49513 simplex iterations) in 20.57 seconds (17.44 work units)
Thread count was 4 (of 128 available processors)

Solution count 10: 1.32433 1.32433 1.32374 ... 1.2806

Optimal solution found (tolerance 1.00e-03)
Warning: max constraint violation (1.8800e-08) exceeds tolerance
Best objective 1.324329844817e+00, best bound 1.325331535153e+00, gap 0.0756%
